
Gurobi 9.5.2 (mac64[arm]) logging started Fri Apr  7 15:01:51 2023

Set parameter LogFile to value "./ccga_results/2023-04-07 15-01-50-343/MSP_TimeStampConvert_gurobi_log.txt"

Gurobi 9.5.2 (mac64[arm]) logging started Fri Apr  7 15:01:51 2023

Set parameter LogFile to value "./ccga_results/2023-04-07 15-01-50-343/MSP_TimeStampConvert_gurobi_log.txt"
Set parameter TimeLimit to value 180
Gurobi Optimizer version 9.5.2 build v9.5.2rc0 (mac64[arm])
Thread count: 8 physical cores, 8 logical processors, using up to 8 threads
Optimize a model with 600 rows, 457 columns and 1482 nonzeros
Model fingerprint: 0x0d62902c
Variable types: 25 continuous, 432 integer (432 binary)
Coefficient statistics:
  Matrix range     [1e+00, 1e+00]
  Objective range  [1e+00, 1e+00]
  Bounds range     [5e+02, 5e+02]
  RHS range        [1e+00, 1e+00]
Found heuristic solution: objective 12000.000000

Explored 0 nodes (0 simplex iterations) in 0.00 seconds (0.00 work units)
Thread count was 1 (of 8 available processors)

Solution count 1: 12000 

Optimal solution found (tolerance 5.00e-02)
Best objective 1.200000000000e+04, best bound 1.200000000000e+04, gap 0.0000%

User-callback calls 21, time in user-callback 0.00 sec
Gurobi Optimizer version 9.5.2 build v9.5.2rc0 (mac64[arm])
Thread count: 8 physical cores, 8 logical processors, using up to 8 threads
Optimize a model with 2173 rows, 961 columns and 6419 nonzeros
Model fingerprint: 0x190b277f
Variable types: 481 continuous, 480 integer (480 binary)
Coefficient statistics:
  Matrix range     [3e-01, 8e+02]
  Objective range  [1e+00, 1e+00]
  Bounds range     [5e+02, 5e+02]
  RHS range        [1e+00, 1e+08]

MIP start from previous solve did not produce a new incumbent solution

Presolve removed 1092 rows and 362 columns
Presolve time: 0.01s
Presolved: 1081 rows, 599 columns, 3380 nonzeros
Variable types: 209 continuous, 390 integer (390 binary)
Found heuristic solution: objective 7514.4792533
Found heuristic solution: objective 8212.8167199
Found heuristic solution: objective 8445.5723869

Root relaxation: objective 1.145906e+04, 275 iterations, 0.00 seconds (0.00 work units)

    Nodes    |    Current Node    |     Objective Bounds      |     Work
 Expl Unexpl |  Obj  Depth IntInf | Incumbent    BestBd   Gap | It/Node Time

*    0     0               0    11459.062140 11459.0621  0.00%     -    0s

Explored 1 nodes (513 simplex iterations) in 0.02 seconds (0.03 work units)
Thread count was 8 (of 8 available processors)

Solution count 4: 11459.1 8445.57 8212.82 7514.48 

Optimal solution found (tolerance 5.00e-02)
Best objective 1.145906214000e+04, best bound 1.145906214000e+04, gap 0.0000%

User-callback calls 704, time in user-callback 0.00 sec
Gurobi Optimizer version 9.5.2 build v9.5.2rc0 (mac64[arm])
Thread count: 8 physical cores, 8 logical processors, using up to 8 threads
Optimize a model with 3746 rows, 1465 columns and 11356 nonzeros
Model fingerprint: 0x6bd3b273
Variable types: 937 continuous, 528 integer (528 binary)
Coefficient statistics:
  Matrix range     [3e-01, 8e+02]
  Objective range  [1e+00, 1e+00]
  Bounds range     [5e+02, 5e+02]
  RHS range        [1e+00, 1e+08]

MIP start from previous solve did not produce a new incumbent solution

Presolve removed 1517 rows and 529 columns
Presolve time: 0.03s
Presolved: 2229 rows, 936 columns, 7484 nonzeros
Variable types: 546 continuous, 390 integer (390 binary)
Found heuristic solution: objective 6020.2380312
Found heuristic solution: objective 6150.9773301
Found heuristic solution: objective 6668.5072379

Root relaxation: objective 1.137321e+04, 784 iterations, 0.01 seconds (0.01 work units)

    Nodes    |    Current Node    |     Objective Bounds      |     Work
 Expl Unexpl |  Obj  Depth IntInf | Incumbent    BestBd   Gap | It/Node Time

     0     0 11373.2073    0   22 6668.50724 11373.2073  70.6%     -    0s
H    0     0                    11165.580112 11373.2073  1.86%     -    0s

Cutting planes:
  Gomory: 7
  Cover: 2
  Implied bound: 2
  MIR: 9
  Flow cover: 24
  Relax-and-lift: 6

Explored 1 nodes (1557 simplex iterations) in 0.13 seconds (0.11 work units)
Thread count was 8 (of 8 available processors)

Solution count 4: 11165.6 6668.51 6150.98 6020.24 

Optimal solution found (tolerance 5.00e-02)
Best objective 1.116558011211e+04, best bound 1.137320725579e+04, gap 1.8595%

User-callback calls 783, time in user-callback 0.00 sec
Gurobi Optimizer version 9.5.2 build v9.5.2rc0 (mac64[arm])
Thread count: 8 physical cores, 8 logical processors, using up to 8 threads
Optimize a model with 5319 rows, 1969 columns and 16293 nonzeros
Model fingerprint: 0xf90a63e6
Variable types: 1393 continuous, 576 integer (576 binary)
Coefficient statistics:
  Matrix range     [3e-01, 8e+02]
  Objective range  [1e+00, 1e+00]
  Bounds range     [5e+02, 5e+02]
  RHS range        [1e+00, 1e+08]

MIP start from previous solve did not produce a new incumbent solution

Presolve removed 1942 rows and 700 columns
Presolve time: 0.03s
Presolved: 3377 rows, 1269 columns, 11586 nonzeros
Variable types: 879 continuous, 390 integer (390 binary)
Found heuristic solution: objective 5362.8510643
Found heuristic solution: objective 5534.0058215

Root relaxation: objective 1.061719e+04, 1693 iterations, 0.02 seconds (0.03 work units)

    Nodes    |    Current Node    |     Objective Bounds      |     Work
 Expl Unexpl |  Obj  Depth IntInf | Incumbent    BestBd   Gap | It/Node Time

     0     0 10617.1892    0   44 5534.00582 10617.1892  91.9%     -    0s
H    0     0                    10000.986358 10617.1892  6.16%     -    0s
H    0     0                    10195.986358 10617.1892  4.13%     -    0s

Cutting planes:
  Gomory: 13
  Cover: 1
  Implied bound: 6
  Clique: 4
  MIR: 37
  Flow cover: 46
  RLT: 1
  Relax-and-lift: 6

Explored 1 nodes (2985 simplex iterations) in 0.17 seconds (0.23 work units)
Thread count was 8 (of 8 available processors)

Solution count 4: 10196 10001 5534.01 5362.85 

Optimal solution found (tolerance 5.00e-02)
Best objective 1.019598635763e+04, best bound 1.061718924854e+04, gap 4.1311%

User-callback calls 802, time in user-callback 0.00 sec
Gurobi Optimizer version 9.5.2 build v9.5.2rc0 (mac64[arm])
Thread count: 8 physical cores, 8 logical processors, using up to 8 threads
Optimize a model with 6892 rows, 2473 columns and 21230 nonzeros
Model fingerprint: 0xe5515ef5
Variable types: 1849 continuous, 624 integer (624 binary)
Coefficient statistics:
  Matrix range     [3e-01, 8e+02]
  Objective range  [1e+00, 1e+00]
  Bounds range     [5e+02, 5e+02]
  RHS range        [1e+00, 1e+08]

MIP start from previous solve did not produce a new incumbent solution

Presolve removed 2367 rows and 871 columns
Presolve time: 0.04s
Presolved: 4525 rows, 1602 columns, 15682 nonzeros
Variable types: 1212 continuous, 390 integer (390 binary)
Found heuristic solution: objective 4954.2659475
Found heuristic solution: objective 5157.2202893

Root relaxation: objective 1.029742e+04, 2535 iterations, 0.05 seconds (0.07 work units)

    Nodes    |    Current Node    |     Objective Bounds      |     Work
 Expl Unexpl |  Obj  Depth IntInf | Incumbent    BestBd   Gap | It/Node Time

     0     0 10297.4194    0   68 5157.22029 10297.4194   100%     -    0s
H    0     0                    9345.6601202 10297.4194  10.2%     -    0s
H    0     0                    9720.8795327 10296.4780  5.92%     -    0s
     0     0 10296.4780    0  106 9720.87953 10296.4780  5.92%     -    0s
     0     0 10290.6950    0   97 9720.87953 10290.6950  5.86%     -    0s
     0     0 10290.6950    0  110 9720.87953 10290.6950  5.86%     -    0s
     0     0 10289.4504    0  136 9720.87953 10289.4504  5.85%     -    0s
     0     0 10289.0626    0  133 9720.87953 10289.0626  5.84%     -    0s
     0     0 10289.0626    0  128 9720.87953 10289.0626  5.84%     -    0s
H    0     0                    9722.5031779 10289.0626  5.83%     -    0s
H    0     0                    9725.4307431 10289.0626  5.80%     -    0s
     0     0 10288.5827    0  129 9725.43074 10288.5827  5.79%     -    0s
     0     0 10288.3656    0  129 9725.43074 10288.3656  5.79%     -    0s
     0     0 10288.0281    0  136 9725.43074 10288.0281  5.78%     -    0s
H    0     0                    10131.694519 10287.4835  1.54%     -    0s
     0     0 10287.4835    0  109 10131.6945 10287.4835  1.54%     -    0s

Cutting planes:
  Gomory: 3
  Cover: 2
  Implied bound: 12
  Clique: 2
  MIR: 72
  Flow cover: 91
  Relax-and-lift: 5

Explored 1 nodes (5122 simplex iterations) in 0.46 seconds (0.60 work units)
Thread count was 8 (of 8 available processors)

Solution count 7: 10131.7 9725.43 9722.5 ... 4954.27

Optimal solution found (tolerance 5.00e-02)
Best objective 1.013169451911e+04, best bound 1.028748352569e+04, gap 1.5376%

User-callback calls 959, time in user-callback 0.00 sec
Gurobi Optimizer version 9.5.2 build v9.5.2rc0 (mac64[arm])
Thread count: 8 physical cores, 8 logical processors, using up to 8 threads
Optimize a model with 8465 rows, 2977 columns and 26167 nonzeros
Model fingerprint: 0xe74f4520
Variable types: 2305 continuous, 672 integer (672 binary)
Coefficient statistics:
  Matrix range     [3e-01, 8e+02]
  Objective range  [1e+00, 1e+00]
  Bounds range     [5e+02, 5e+02]
  RHS range        [1e+00, 1e+08]

MIP start from previous solve did not produce a new incumbent solution

Presolve removed 2789 rows and 1039 columns
Presolve time: 0.05s
Presolved: 5676 rows, 1938 columns, 19379 nonzeros
Variable types: 1545 continuous, 393 integer (390 binary)
Found heuristic solution: objective 4736.3394933
Found heuristic solution: objective 4842.0960284

Root relaxation: objective 9.477732e+03, 4006 iterations, 0.09 seconds (0.09 work units)

    Nodes    |    Current Node    |     Objective Bounds      |     Work
 Expl Unexpl |  Obj  Depth IntInf | Incumbent    BestBd   Gap | It/Node Time

     0     0 9477.73200    0   85 4842.09603 9477.73200  95.7%     -    0s
H    0     0                    8648.3738220 9477.73200  9.59%     -    0s
     0     0 9466.11215    0  177 8648.37382 9466.11215  9.46%     -    0s
     0     0 9447.06395    0  166 8648.37382 9447.06395  9.24%     -    0s
     0     0 9447.06395    0  166 8648.37382 9447.06395  9.24%     -    0s
     0     0 9447.06395    0  166 8648.37382 9447.06395  9.24%     -    0s
     0     0 9431.47516    0  165 8648.37382 9431.47516  9.05%     -    0s
     0     0 9426.15200    0  146 8648.37382 9426.15200  8.99%     -    0s
     0     0 9425.26342    0  152 8648.37382 9425.26342  8.98%     -    0s
     0     0 9425.21076    0  161 8648.37382 9425.21076  8.98%     -    0s
     0     0 9425.21076    0  161 8648.37382 9425.21076  8.98%     -    0s
H    0     0                    8737.0845421 9425.21076  7.88%     -    0s
     0     0 9423.78759    0  176 8737.08454 9423.78759  7.86%     -    0s
H    0     0                    8778.2423332 9420.41136  7.32%     -    0s
H    0     0                    8784.4062012 9420.41136  7.24%     -    0s
     0     0 9420.41136    0  161 8784.40620 9420.41136  7.24%     -    0s
     0     0 9420.15518    0  169 8784.40620 9420.15518  7.24%     -    0s
     0     0 9420.04027    0  180 8784.40620 9420.04027  7.24%     -    0s
     0     0 9419.88734    0  177 8784.40620 9419.88734  7.23%     -    0s
     0     0 9419.31796    0  174 8784.40620 9419.31796  7.23%     -    0s
     0     0 9419.30828    0  162 8784.40620 9419.30828  7.23%     -    0s
H    0     0                    8864.1753463 9419.30127  6.26%     -    0s
     0     0 9419.30127    0  163 8864.17535 9419.30127  6.26%     -    0s
     0     0 9419.30127    0  167 8864.17535 9419.30127  6.26%     -    0s
     0     0 9418.07039    0  156 8864.17535 9418.07039  6.25%     -    0s
     0     0 9417.92111    0  169 8864.17535 9417.92111  6.25%     -    0s
     0     0 9417.53636    0  160 8864.17535 9417.53636  6.24%     -    0s
H    0     0                    9049.2487912 9417.53636  4.07%     -    0s
     0     0 9417.53636    0  165 9049.24879 9417.53636  4.07%     -    0s

Cutting planes:
  Gomory: 3
  Cover: 5
  Implied bound: 9
  MIR: 113
  Flow cover: 144
  RLT: 1
  Relax-and-lift: 7

Explored 1 nodes (8195 simplex iterations) in 0.89 seconds (1.05 work units)
Thread count was 8 (of 8 available processors)

Solution count 8: 9049.25 8864.18 8784.41 ... 4736.34

Optimal solution found (tolerance 5.00e-02)
Best objective 9.049248791222e+03, best bound 9.417536357729e+03, gap 4.0698%

User-callback calls 1132, time in user-callback 0.00 sec
Gurobi Optimizer version 9.5.2 build v9.5.2rc0 (mac64[arm])
Thread count: 8 physical cores, 8 logical processors, using up to 8 threads
Optimize a model with 10038 rows, 3481 columns and 31104 nonzeros
Model fingerprint: 0xb045e5b2
Variable types: 2761 continuous, 720 integer (720 binary)
Coefficient statistics:
  Matrix range     [1e-01, 8e+02]
  Objective range  [1e+00, 1e+00]
  Bounds range     [5e+02, 5e+02]
  RHS range        [1e+00, 1e+08]

MIP start from previous solve did not produce a new incumbent solution

Presolve removed 3277 rows and 1219 columns
Presolve time: 0.07s
Presolved: 6761 rows, 2262 columns, 23058 nonzeros
Variable types: 1878 continuous, 384 integer (381 binary)
Found heuristic solution: objective 4604.7040273
Found heuristic solution: objective 4690.4592125

Root relaxation: objective 8.831263e+03, 4592 iterations, 0.10 seconds (0.10 work units)

    Nodes    |    Current Node    |     Objective Bounds      |     Work
 Expl Unexpl |  Obj  Depth IntInf | Incumbent    BestBd   Gap | It/Node Time

     0     0 8831.26314    0  108 4690.45921 8831.26314  88.3%     -    0s
H    0     0                    7174.5710514 8831.26314  23.1%     -    0s
     0     0 8824.24043    0  189 7174.57105 8824.24043  23.0%     -    0s
H    0     0                    7183.7503713 8824.24043  22.8%     -    0s
H    0     0                    7251.0049746 8816.30862  21.6%     -    0s
     0     0 8816.30862    0  166 7251.00497 8816.30862  21.6%     -    0s
     0     0 8816.30862    0  166 7251.00497 8816.30862  21.6%     -    0s
H    0     0                    7717.1351309 8790.56697  13.9%     -    0s
     0     0 8790.56697    0  183 7717.13513 8790.56697  13.9%     -    0s
     0     0 8790.36762    0  196 7717.13513 8790.36762  13.9%     -    0s
     0     0 8790.29421    0  202 7717.13513 8790.29421  13.9%     -    0s
     0     0 8790.04867    0  195 7717.13513 8790.04867  13.9%     -    0s
     0     0 8790.04867    0  195 7717.13513 8790.04867  13.9%     -    0s
     0     0 8773.00039    0  202 7717.13513 8773.00039  13.7%     -    0s
     0     0 8760.91132    0  166 7717.13513 8760.91132  13.5%     -    0s
     0     0 8759.97417    0  169 7717.13513 8759.97417  13.5%     -    0s
H    0     0                    7761.3872821 8757.10177  12.8%     -    0s
     0     0 8757.10177    0  161 7761.38728 8757.10177  12.8%     -    0s
     0     0 8756.62072    0  184 7761.38728 8756.62072  12.8%     -    0s
     0     0 8756.08645    0  184 7761.38728 8756.08645  12.8%     -    0s
     0     0 8756.06573    0  184 7761.38728 8756.06573  12.8%     -    0s
     0     0 8756.06573    0  184 7761.38728 8756.06573  12.8%     -    0s
     0     0 8750.52680    0  201 7761.38728 8750.52680  12.7%     -    0s
     0     0 8744.46557    0  208 7761.38728 8744.46557  12.7%     -    1s
     0     0 8744.31791    0  216 7761.38728 8744.31791  12.7%     -    1s
     0     0 8744.31279    0  219 7761.38728 8744.31279  12.7%     -    1s
     0     0 8743.34225    0  207 7761.38728 8743.34225  12.7%     -    1s
H    0     0                    7977.9977051 8742.73448  9.59%     -    1s
     0     0 8742.73448    0  219 7977.99771 8742.73448  9.59%     -    1s
     0     0 8742.04177    0  218 7977.99771 8742.04177  9.58%     -    1s
     0     0 8741.80035    0  199 7977.99771 8741.80035  9.57%     -    1s
     0     0 8741.80035    0  204 7977.99771 8741.80035  9.57%     -    1s
     0     0 8737.30041    0  196 7977.99771 8737.30041  9.52%     -    1s
     0     0 8737.26825    0  214 7977.99771 8737.26825  9.52%     -    1s
     0     0 8737.26634    0  225 7977.99771 8737.26634  9.52%     -    1s
     0     0 8737.16525    0  224 7977.99771 8737.16525  9.52%     -    1s
     0     0 8737.16021    0  229 7977.99771 8737.16021  9.52%     -    1s
     0     0 8736.73861    0  213 7977.99771 8736.73861  9.51%     -    1s
     0     0 8736.41087    0  216 7977.99771 8736.41087  9.51%     -    1s
     0     0 8736.36086    0  239 7977.99771 8736.36086  9.51%     -    1s
     0     0 8736.35683    0  239 7977.99771 8736.35683  9.51%     -    1s
     0     0 8736.34013    0  236 7977.99771 8736.34013  9.51%     -    1s
     0     0 8736.33802    0  236 7977.99771 8736.33802  9.51%     -    1s
H    0     0                    8139.5840200 8736.33802  7.33%     -    1s
     0     0 8736.32231    0  239 8139.58402 8736.32231  7.33%     -    1s
     0     0 8736.31865    0  242 8139.58402 8736.31865  7.33%     -    1s
     0     0 8736.20966    0  242 8139.58402 8736.20966  7.33%     -    1s
     0     0 8736.20966    0  173 8139.58402 8736.20966  7.33%     -    1s
     0     2 8736.20966    0  169 8139.58402 8736.20966  7.33%     -    1s
H  373   351                    8158.6794531 8732.04913  7.03%   158    3s
H  473   428                    8309.3055592 8732.04913  5.09%   157    3s
   870   645 8381.26405   32   92 8309.30556 8732.04013  5.09%   141    5s
H  874   616                    8328.2537703 8732.04013  4.85%   141    5s

Cutting planes:
  Gomory: 2
  Cover: 1
  Implied bound: 27
  MIR: 359
  Flow cover: 384
  Relax-and-lift: 15

Explored 880 nodes (136953 simplex iterations) in 5.29 seconds (7.50 work units)
Thread count was 8 (of 8 available processors)

Solution count 10: 8328.25 8309.31 8158.68 ... 7174.57

Optimal solution found (tolerance 5.00e-02)
Best objective 8.328253770269e+03, best bound 8.732040126510e+03, gap 4.8484%

User-callback calls 4090, time in user-callback 0.00 sec
Gurobi Optimizer version 9.5.2 build v9.5.2rc0 (mac64[arm])
Thread count: 8 physical cores, 8 logical processors, using up to 8 threads
Optimize a model with 11611 rows, 3985 columns and 36041 nonzeros
Model fingerprint: 0x0c08754d
Variable types: 3217 continuous, 768 integer (768 binary)
Coefficient statistics:
  Matrix range     [1e-01, 8e+02]
  Objective range  [1e+00, 1e+00]
  Bounds range     [5e+02, 5e+02]
  RHS range        [1e+00, 1e+08]

MIP start from previous solve did not produce a new incumbent solution

Presolve removed 3711 rows and 1390 columns
Presolve time: 0.08s
Presolved: 7900 rows, 2595 columns, 26974 nonzeros
Variable types: 2211 continuous, 384 integer (381 binary)
Found heuristic solution: objective 4488.2143116
Found heuristic solution: objective 4584.5692660
Found heuristic solution: objective 4646.4039335

Root relaxation: objective 8.699980e+03, 5349 iterations, 0.13 seconds (0.13 work units)

    Nodes    |    Current Node    |     Objective Bounds      |     Work
 Expl Unexpl |  Obj  Depth IntInf | Incumbent    BestBd   Gap | It/Node Time

     0     0 8699.98008    0  126 4646.40393 8699.98008  87.2%     -    0s
H    0     0                    7283.9596929 8699.98008  19.4%     -    0s
     0     0 8679.49970    0  216 7283.95969 8679.49970  19.2%     -    0s
     0     0 8679.49662    0  218 7283.95969 8679.49662  19.2%     -    0s
     0     0 8662.49868    0  220 7283.95969 8662.49868  18.9%     -    0s
H    0     0                    7545.2790818 8656.31204  14.7%     -    0s
     0     0 8656.31204    0  206 7545.27908 8656.31204  14.7%     -    0s
     0     0 8656.23010    0  223 7545.27908 8656.23010  14.7%     -    0s
     0     0 8656.22146    0  225 7545.27908 8656.22146  14.7%     -    0s
     0     0 8656.07100    0  207 7545.27908 8656.07100  14.7%     -    0s
     0     0 8656.02491    0  207 7545.27908 8656.02491  14.7%     -    0s
     0     0 8655.87469    0  213 7545.27908 8655.87469  14.7%     -    0s
     0     0 8655.87469    0  213 7545.27908 8655.87469  14.7%     -    0s
     0     0 8643.74357    0  242 7545.27908 8643.74357  14.6%     -    0s
     0     0 8629.56331    0  242 7545.27908 8629.56331  14.4%     -    1s
     0     0 8628.95883    0  252 7545.27908 8628.95883  14.4%     -    1s
     0     0 8628.51982    0  253 7545.27908 8628.51982  14.4%     -    1s
     0     0 8628.51688    0  255 7545.27908 8628.51688  14.4%     -    1s
     0     0 8621.81497    0  214 7545.27908 8621.81497  14.3%     -    1s
     0     0 8620.91042    0  224 7545.27908 8620.91042  14.3%     -    1s
     0     0 8620.78646    0  225 7545.27908 8620.78646  14.3%     -    1s
     0     0 8620.77291    0  225 7545.27908 8620.77291  14.3%     -    1s
H    0     0                    7674.7970152 8618.61955  12.3%     -    1s
     0     0 8618.61955    0  224 7674.79702 8618.61955  12.3%     -    1s
     0     0 8618.44886    0  226 7674.79702 8618.44886  12.3%     -    1s
     0     0 8618.44250    0  232 7674.79702 8618.44250  12.3%     -    1s
     0     0 8615.26844    0  227 7674.79702 8615.26844  12.3%     -    1s
     0     0 8615.23014    0  227 7674.79702 8615.23014  12.3%     -    1s
     0     0 8615.23014    0  227 7674.79702 8615.23014  12.3%     -    1s
     0     0 8615.22715    0  234 7674.79702 8615.22715  12.3%     -    1s
     0     0 8615.19313    0  230 7674.79702 8615.19313  12.3%     -    1s
     0     0 8615.19313    0  230 7674.79702 8615.19313  12.3%     -    1s
H    0     0                    7724.6007063 8615.19313  11.5%     -    1s
     0     0 8615.12858    0  228 7724.60071 8615.12858  11.5%     -    1s
     0     0 8615.12858    0  173 7724.60071 8615.12858  11.5%     -    1s
     0     2 8615.12858    0  169 7724.60071 8615.12858  11.5%     -    2s
H  100   111                    7835.5150485 8610.35618  9.89%   317    2s
H  182   192                    7948.9351447 8610.35618  8.32%   251    2s
H  364   373                    7982.7687572 8610.35618  7.86%   190    3s
H  368   373                    7999.9083012 8610.35618  7.63%   191    3s
H  384   408                    8047.1468779 8610.35618  7.00%   187    3s
H  639   593                    8050.1066632 8610.35618  6.96%   164    4s
H  640   592                    8052.1468779 8610.35618  6.93%   164    4s
H  641   592                    8052.2253519 8610.35618  6.93%   164    4s
H  643   586                    8056.8140919 8610.35618  6.87%   166    4s
   663   607 8544.37557    5  186 8056.81409 8610.07263  6.87%   166    5s
* 1168  1005              94    8097.3291494 8610.05572  6.33%   150    5s
  1472  1239 8203.13065   51  193 8097.32915 8543.82312  5.51%   147   10s
  1499  1257 8291.30469   57  217 8097.32915 8534.72256  5.40%   144   15s
  1529  1279 8273.68960   49  199 8097.32915 8530.28417  5.35%   167   20s
  1545  1294 8343.27569   26  163 8097.32915 8526.39751  5.30%   187   25s
  2068  1586 8131.82410   77   80 8097.32915 8521.09323  5.23%   204   30s
H 2074  1515                    8136.8226432 8521.09323  4.72%   204   30s

Cutting planes:
  Gomory: 23
  Implied bound: 5
  MIR: 290
  Flow cover: 516
  Relax-and-lift: 8

Explored 2076 nodes (437348 simplex iterations) in 30.46 seconds (43.11 work units)
Thread count was 8 (of 8 available processors)

Solution count 10: 8136.82 8097.33 8056.81 ... 7948.94

Optimal solution found (tolerance 5.00e-02)
Best objective 8.136822643200e+03, best bound 8.521093233395e+03, gap 4.7226%

User-callback calls 15227, time in user-callback 0.01 sec
Gurobi Optimizer version 9.5.2 build v9.5.2rc0 (mac64[arm])
Thread count: 8 physical cores, 8 logical processors, using up to 8 threads
Optimize a model with 13184 rows, 4489 columns and 40978 nonzeros
Model fingerprint: 0xdd7ae56e
Variable types: 3673 continuous, 816 integer (816 binary)
Coefficient statistics:
  Matrix range     [1e-01, 8e+02]
  Objective range  [1e+00, 1e+00]
  Bounds range     [5e+02, 5e+02]
  RHS range        [1e+00, 1e+08]

MIP start from previous solve did not produce a new incumbent solution

Presolve removed 4145 rows and 1561 columns
Presolve time: 0.09s
Presolved: 9039 rows, 2928 columns, 30893 nonzeros
Variable types: 2544 continuous, 384 integer (381 binary)
Found heuristic solution: objective 4488.2143116
Found heuristic solution: objective 4490.2370124
Found heuristic solution: objective 4517.5728146

Root relaxation: objective 8.409265e+03, 6154 iterations, 0.18 seconds (0.19 work units)

    Nodes    |    Current Node    |     Objective Bounds      |     Work
 Expl Unexpl |  Obj  Depth IntInf | Incumbent    BestBd   Gap | It/Node Time

     0     0 8409.26501    0  145 4517.57281 8409.26501  86.1%     -    0s
H    0     0                    6794.2459511 8409.26501  23.8%     -    0s
     0     0 8389.15070    0  237 6794.24595 8389.15070  23.5%     -    0s
     0     0 8382.22108    0  236 6794.24595 8382.22108  23.4%     -    0s
     0     0 8382.21385    0  233 6794.24595 8382.21385  23.4%     -    0s
     0     0 8382.21385    0  233 6794.24595 8382.21385  23.4%     -    0s
     0     0 8348.69187    0  232 6794.24595 8348.69187  22.9%     -    1s
     0     0 8333.24753    0  232 6794.24595 8333.24753  22.7%     -    1s
     0     0 8332.31268    0  243 6794.24595 8332.31268  22.6%     -    1s
     0     0 8330.53974    0  232 6794.24595 8330.53974  22.6%     -    1s
     0     0 8330.53699    0  240 6794.24595 8330.53699  22.6%     -    1s
H    0     0                    7222.3178101 8330.53699  15.3%     -    1s
     0     0 8317.34927    0  257 7222.31781 8317.34927  15.2%     -    1s
     0     0 8316.87717    0  262 7222.31781 8316.87717  15.2%     -    1s
     0     0 8316.87717    0  262 7222.31781 8316.87717  15.2%     -    1s
     0     0 8314.47766    0  253 7222.31781 8314.47766  15.1%     -    1s
     0     0 8312.20288    0  253 7222.31781 8312.20288  15.1%     -    1s
     0     0 8311.85403    0  243 7222.31781 8311.85403  15.1%     -    1s
     0     0 8311.67961    0  249 7222.31781 8311.67961  15.1%     -    1s
     0     0 8311.49733    0  246 7222.31781 8311.49733  15.1%     -    1s
     0     0 8311.31681    0  246 7222.31781 8311.31681  15.1%     -    1s
     0     0 8311.31681    0  246 7222.31781 8311.31681  15.1%     -    1s
     0     0 8308.38022    0  247 7222.31781 8308.38022  15.0%     -    1s
     0     0 8307.78668    0  253 7222.31781 8307.78668  15.0%     -    1s
     0     0 8307.70163    0  247 7222.31781 8307.70163  15.0%     -    1s
     0     0 8307.70151    0  247 7222.31781 8307.70151  15.0%     -    1s
H    0     0                    7235.3992738 8307.70151  14.8%     -    1s
     0     0 8306.36018    0  255 7235.39927 8306.36018  14.8%     -    1s
     0     0 8306.19859    0  241 7235.39927 8306.19859  14.8%     -    1s
     0     0 8306.15111    0  238 7235.39927 8306.15111  14.8%     -    1s
     0     0 8306.15111    0  238 7235.39927 8306.15111  14.8%     -    1s
H    0     0                    7358.8332296 8306.15111  12.9%     -    2s
     0     0 8305.86534    0  238 7358.83323 8305.86534  12.9%     -    2s
     0     0 8305.85226    0  238 7358.83323 8305.85226  12.9%     -    2s
     0     0 8305.85226    0  238 7358.83323 8305.85226  12.9%     -    2s
     0     0 8305.85226    0  241 7358.83323 8305.85226  12.9%     -    2s
     0     0 8305.85226    0  241 7358.83323 8305.85226  12.9%     -    2s
     0     0 8305.85226    0  191 7358.83323 8305.85226  12.9%     -    2s
     0     2 8305.85226    0  182 7358.83323 8305.85226  12.9%     -    2s
H  312   315                    7587.1757852 8303.99209  9.45%   197    3s
   470   490 8131.01278   14  165 7587.17579 8302.40910  9.43%   175    5s
H  515   490                    7594.6744522 8302.40910  9.32%   171    5s
H  692   607                    7604.3416662 8302.40910  9.18%   170    6s
  1516  1316 8240.23006    7  142 7604.34167 8298.98046  9.13%   159   10s
  1548  1338 7988.61661   30  249 7604.34167 8245.28359  8.43%   156   15s
  1577  1358 8126.31466   16  216 7604.34167 8232.72356  8.26%   169   20s
  1602  1375 7639.92870   77  230 7604.34167 8226.79392  8.19%   166   25s
  1702  1459 8211.68022   31  211 7604.34167 8220.98342  8.11%   198   30s
H 1926  1532                    7633.2247245 8220.98342  7.70%   202   31s
